
n_res = 6;
rcap = [56, 57, 447, 457, 466, 501];
rtype = [1, 1, 2, 2, 2, 2];
n_tasks = 100;
modes =  [{1, 2, 3}, {4, 5, 6}, {7, 8, 9}, {10, 11, 12}, {13, 14, 15}, {16, 17, 18}, {19, 20, 21}, {22, 23, 24}, {25, 26, 27}, {28, 29, 30}, {31, 32, 33}, {34, 35, 36}, {37, 38, 39}, {40, 41, 42}, {43, 44, 45}, {46, 47, 48}, {49, 50, 51}, {52, 53, 54}, {55, 56, 57}, {58, 59, 60}, {61, 62, 63}, {64, 65, 66}, {67, 68, 69}, {70, 71, 72}, {73, 74, 75}, {76, 77, 78}, {79, 80, 81}, {82, 83, 84}, {85, 86, 87}, {88, 89, 90}, {91, 92, 93}, {94, 95, 96}, {97, 98, 99}, {100, 101, 102}, {103, 104, 105}, {106, 107, 108}, {109, 110, 111}, {112, 113, 114}, {115, 116, 117}, {118, 119, 120}, {121, 122, 123}, {124, 125, 126}, {127, 128, 129}, {130, 131, 132}, {133, 134, 135}, {136, 137, 138}, {139, 140, 141}, {142, 143, 144}, {145, 146, 147}, {148, 149, 150}, {151, 152, 153}, {154, 155, 156}, {157, 158, 159}, {160, 161, 162}, {163, 164, 165}, {166, 167, 168}, {169, 170, 171}, {172, 173, 174}, {175, 176, 177}, {178, 179, 180}, {181, 182, 183}, {184, 185, 186}, {187, 188, 189}, {190, 191, 192}, {193, 194, 195}, {196, 197, 198}, {199, 200, 201}, {202, 203, 204}, {205, 206, 207}, {208, 209, 210}, {211, 212, 213}, {214, 215, 216}, {217, 218, 219}, {220, 221, 222}, {223, 224, 225}, {226, 227, 228}, {229, 230, 231}, {232, 233, 234}, {235, 236, 237}, {238, 239, 240}, {241, 242, 243}, {244, 245, 246}, {247, 248, 249}, {250, 251, 252}, {253, 254, 255}, {256, 257, 258}, {259, 260, 261}, {262, 263, 264}, {265, 266, 267}, {268, 269, 270}, {271, 272, 273}, {274, 275, 276}, {277, 278, 279}, {280, 281, 282}, {283, 284, 285}, {286, 287, 288}, {289, 290, 291}, {292, 293, 294}, {295, 296, 297}, {298, 299, 300}];
succ =  [{85, 84, 82, 72, 69, 64, 63, 55, 52, 50, 42, 36, 35, 29, 24}, {100, 99, 96, 95, 86, 81, 73, 71, 70, 63, 62, 60, 58, 55, 50, 49, 43, 40, 39, 35}, {100, 99, 83, 82, 81, 80, 73, 72, 70, 64, 53, 52, 51, 50, 49, 48, 45, 40, 30}, {100, 86, 82, 81, 72, 71, 63, 61, 60, 56, 55, 53, 48, 45, 17}, {100, 86, 82, 80, 72, 63, 59, 58, 54, 53, 52, 48, 42, 17}, {100, 99, 97, 86, 81, 80, 73, 72, 70, 66, 62, 61, 53, 51, 45, 43, 39, 35}, {86, 73, 72, 62, 55, 48, 42, 39, 17}, {96, 86, 82, 81, 72, 71, 64, 54, 53, 48, 17}, {100, 86, 82, 80, 63, 48, 47, 42, 17}, {100, 98, 89, 83, 73, 62, 58, 57, 54, 47, 42, 40, 39}, {86, 84, 80, 72, 60, 58, 50, 47, 28, 27}, {97, 80, 71, 70, 69, 62, 60, 53, 48, 39, 29}, {99, 98, 96, 95, 87, 86, 83, 80, 77, 72, 71, 68, 67, 66, 65, 62, 60, 56, 54, 51}, {100, 99, 97, 96, 94, 90, 89, 88, 83, 70, 69, 68, 66, 62, 57, 48, 39}, {100, 99, 97, 86, 85, 82, 81, 67, 66, 48, 45, 34}, {99, 98, 97, 95, 94, 92, 91, 87, 86, 83, 71, 69, 67, 66, 65, 62, 59, 53, 50}, {99, 97, 95, 94, 93, 87, 85, 84, 83, 79, 70, 69, 68, 65, 50, 49}, {99, 97, 95, 94, 93, 87, 86, 79, 71, 70, 69, 66, 54, 50, 48}, {98, 93, 91, 90, 89, 88, 86, 83, 79, 76, 61, 58, 42}, {98, 97, 96, 95, 94, 93, 92, 90, 83, 80, 79, 77, 70, 68, 66, 65, 63, 62, 55}, {97, 95, 94, 93, 91, 90, 84, 82, 68, 67, 66, 65, 63, 45}, {99, 96, 95, 81, 80, 79, 72, 69, 67, 66, 63, 60, 48}, {99, 98, 96, 93, 91, 89, 88, 87, 85, 80, 78, 76, 71, 67, 66, 65, 62, 57}, {99, 98, 97, 95, 94, 93, 91, 89, 88, 80, 76, 62, 53, 49}, {99, 98, 97, 86, 83, 82, 80, 76, 70, 66, 65, 61, 56, 53}, {97, 94, 93, 89, 88, 86, 83, 82, 81, 80, 79, 78, 77, 76, 75, 70, 65, 64}, {96, 95, 94, 89, 88, 85, 81, 79, 78, 77, 71, 69, 67, 66, 65}, {99, 98, 94, 93, 92, 89, 87, 78, 76, 65, 61, 59}, {100, 99, 96, 94, 93, 92, 90, 89, 88, 79, 77, 76, 73, 67, 66}, {97, 95, 93, 92, 90, 89, 88, 86, 84, 79, 77, 68, 67, 66, 65}, {99, 97, 94, 92, 91, 90, 88, 86, 85, 78, 77, 76, 67, 66, 65}, {98, 95, 94, 93, 92, 90, 88, 87, 82, 75, 67, 53}, {99, 97, 91, 89, 87, 84, 77, 76, 67, 66, 65, 59}, {94, 93, 91, 89, 87, 84, 76, 75, 71, 65, 59}, {93, 89, 88, 79, 76, 75, 48}, {95, 93, 90, 89, 88, 80, 78, 76, 74, 66}, {100, 97, 96, 92, 89, 79, 76, 70, 65}, {94, 91, 88, 76, 65, 53}, {93, 92, 85, 84, 82, 79, 76, 75, 65}, {97, 94, 93, 91, 90, 88, 79, 76, 67}, {96, 95, 94, 92, 83, 77, 76, 75, 68}, {99, 96, 92, 81, 77, 67, 66, 65}, {94, 90, 88, 87, 83, 75, 67, 65}, {98, 93, 91, 90, 79, 76, 74, 66}, {98, 96, 92, 79, 77, 74, 69}, {100, 94, 93, 80, 78, 75, 65}, {97, 94, 91, 87, 79, 77, 75}, {98, 92, 91, 78, 77, 65}, {92, 90, 78, 67, 66}, {90, 89, 88, 77, 75, 74}, {92, 91, 89, 85, 79, 76}, {89, 79, 76, 75, 74}, {79, 77, 74, 68}, {90, 88, 76, 75}, {78, 76, 75, 74}, {93, 91, 89, 78}, {95, 86, 79, 77}, {97, 74, 68}, {96, 90, 88}, {94, 93, 75}, {95, 77, 75}, {75, 74}, {89, 88}, {92, 91}, {74}, {75}, {74}, {78}, {76}, {91}, {90}, {74}, {87}, {}, {}, {}, {}, {}, {}, {}, {}, {}, {}, {}, {}, {}, {}, {}, {}, {}, {}, {}, {}, {}, {}, {}, {}, {}, {}, {}];
n_opt = 300;
dur = [2, 4, 9, 4, 6, 9, 1, 2, 6, 2, 5, 10, 3, 4, 8, 4, 5, 9, 4, 8, 10, 2, 7, 8, 4, 5, 6, 2, 7, 10, 1, 2, 5, 6, 7, 9, 4, 5, 7, 1, 3, 10, 3, 4, 5, 4, 8, 10, 2, 7, 9, 3, 6, 7, 5, 8, 10, 3, 5, 7, 4, 5, 9, 5, 8, 10, 3, 7, 9, 2, 3, 5, 1, 6, 8, 7, 8, 10, 1, 9, 10, 6, 7, 10, 7, 8, 9, 1, 2, 6, 1, 2, 6, 3, 5, 8, 3, 6, 7, 4, 8, 10, 1, 4, 6, 6, 9, 10, 4, 8, 9, 1, 3, 6, 3, 5, 8, 1, 7, 8, 2, 4, 9, 4, 7, 8, 2, 9, 10, 4, 6, 7, 3, 9, 10, 2, 3, 4, 1, 3, 10, 5, 6, 9, 4, 5, 9, 2, 4, 10, 7, 8, 10, 4, 5, 6, 3, 6, 7, 2, 7, 8, 1, 6, 8, 7, 8, 9, 6, 7, 9, 4, 5, 7, 2, 3, 4, 4, 8, 9, 3, 4, 7, 7, 8, 10, 3, 7, 10, 6, 8, 10, 1, 6, 9, 2, 3, 8, 1, 2, 3, 3, 5, 9, 1, 7, 10, 2, 5, 7, 3, 7, 10, 1, 4, 6, 2, 4, 6, 1, 6, 10, 6, 8, 10, 1, 4, 9, 8, 9, 10, 6, 9, 10, 1, 3, 5, 4, 9, 10, 1, 8, 9, 1, 2, 4, 4, 8, 9, 4, 5, 9, 5, 9, 10, 1, 4, 8, 1, 9, 10, 7, 8, 10, 4, 5, 6, 4, 5, 7, 5, 8, 10, 5, 6, 7, 3, 7, 8, 3, 7, 8, 3, 8, 9, 2, 3, 8, 2, 6, 9, 5, 6, 8, 4, 9, 10, 2, 3, 4];
rreq = [|4, 3, 3, 2, 2, 2, 2, 2, 2, 4, 2, 2, 5, 5, 5, 3, 2, 1, 3, 3, 2, 5, 4, 4, 5, 4, 4, 3, 3, 1, 4, 2, 2, 4, 3, 3, 5, 5, 5, 2, 2, 2, 5, 4, 4, 3, 3, 2, 3, 3, 3, 3, 3, 3, 3, 3, 2, 5, 5, 5, 2, 2, 1, 3, 3, 2, 5, 4, 4, 2, 2, 2, 3, 3, 3, 3, 2, 2, 5, 3, 3, 1, 1, 1, 4, 2, 1, 4, 4, 4, 3, 2, 1, 4, 3, 3, 2, 1, 1, 3, 2, 1, 2, 2, 2, 2, 2, 1, 3, 1, 1, 1, 1, 1, 5, 5, 5, 4, 4, 3, 1, 1, 1, 5, 5, 5, 4, 3, 3, 4, 2, 2, 3, 3, 3, 3, 2, 2, 1, 1, 1, 4, 3, 3, 4, 4, 4, 3, 2, 2, 5, 4, 2, 3, 3, 3, 2, 2, 2, 4, 3, 2, 2, 1, 1, 2, 2, 2, 3, 3, 3, 3, 2, 1, 2, 2, 2, 5, 4, 4, 3, 3, 3, 4, 4, 3, 5, 4, 4, 3, 2, 2, 3, 3, 3, 5, 4, 4, 5, 4, 4, 2, 2, 2, 1, 1, 1, 5, 2, 1, 4, 2, 2, 3, 2, 2, 2, 1, 1, 2, 2, 2, 1, 1, 1, 5, 4, 3, 2, 1, 1, 4, 3, 3, 2, 2, 2, 4, 3, 3, 1, 1, 1, 4, 4, 3, 3, 3, 3, 4, 3, 3, 2, 1, 1, 2, 2, 2, 4, 4, 2, 4, 4, 3, 4, 2, 1, 3, 3, 2, 4, 4, 3, 3, 2, 2, 3, 1, 1, 2, 2, 2, 4, 2, 2, 4, 4, 4, 5, 3, 2, 3, 3, 1, 3, 3, 3, 3, 3, 2
 |4, 3, 3, 2, 1, 1, 3, 1, 1, 3, 3, 1, 1, 1, 1, 2, 2, 2, 5, 3, 3, 3, 3, 3, 5, 5, 5, 4, 4, 4, 5, 5, 5, 4, 4, 4, 3, 2, 2, 3, 3, 3, 2, 2, 1, 3, 3, 1, 2, 2, 2, 3, 3, 2, 2, 2, 1, 5, 2, 2, 4, 2, 1, 5, 4, 4, 3, 3, 3, 3, 3, 2, 1, 1, 1, 3, 2, 2, 4, 4, 4, 4, 3, 2, 4, 3, 3, 3, 3, 3, 3, 3, 3, 4, 3, 3, 4, 3, 3, 4, 3, 3, 4, 4, 3, 2, 2, 2, 3, 3, 3, 3, 2, 2, 5, 3, 3, 4, 4, 4, 5, 4, 4, 4, 3, 2, 3, 3, 2, 5, 5, 5, 3, 3, 3, 5, 4, 2, 1, 1, 1, 5, 2, 2, 2, 2, 1, 3, 3, 3, 5, 2, 2, 5, 4, 4, 4, 3, 3, 4, 4, 4, 5, 3, 1, 3, 2, 2, 4, 4, 4, 4, 2, 2, 3, 2, 1, 3, 3, 3, 4, 3, 1, 4, 4, 4, 3, 2, 2, 4, 4, 4, 2, 2, 2, 3, 2, 2, 3, 2, 2, 3, 2, 1, 3, 2, 2, 3, 3, 3, 3, 3, 1, 2, 2, 2, 5, 4, 3, 3, 2, 1, 5, 4, 4, 2, 2, 2, 2, 1, 1, 1, 1, 1, 5, 4, 4, 5, 4, 4, 4, 2, 2, 2, 2, 2, 1, 1, 1, 4, 2, 2, 4, 4, 4, 3, 2, 1, 4, 4, 4, 5, 4, 3, 5, 3, 2, 4, 4, 4, 2, 1, 1, 4, 3, 2, 5, 5, 5, 4, 2, 1, 3, 2, 2, 2, 1, 1, 3, 3, 3, 3, 3, 3, 4, 3, 2, 2, 1, 1
 |7, 6, 6, 7, 6, 5, 5, 5, 5, 6, 4, 4, 7, 7, 7, 6, 6, 4, 6, 5, 5, 6, 6, 5, 2, 2, 2, 4, 2, 1, 5, 5, 5, 8, 6, 6, 7, 6, 2, 4, 3, 2, 4, 4, 4, 4, 4, 2, 5, 5, 3, 9, 4, 2, 9, 7, 6, 7, 3, 3, 4, 3, 1, 7, 4, 4, 7, 7, 2, 7, 6, 6, 8, 6, 5, 9, 5, 2, 6, 4, 3, 4, 4, 3, 7, 3, 3, 6, 3, 3, 2, 2, 2, 7, 7, 7, 8, 8, 7, 5, 4, 2, 5, 3, 2, 7, 4, 2, 8, 8, 8, 8, 6, 6, 4, 3, 2, 3, 2, 2, 8, 8, 5, 5, 4, 3, 7, 5, 2, 10, 6, 5, 6, 6, 5, 7, 5, 4, 10, 7, 5, 4, 4, 4, 6, 5, 4, 9, 7, 6, 4, 3, 2, 9, 7, 3, 9, 8, 5, 8, 5, 4, 7, 7, 6, 9, 7, 7, 5, 4, 4, 5, 3, 3, 7, 5, 2, 4, 2, 1, 6, 6, 6, 3, 2, 1, 4, 3, 3, 7, 4, 4, 2, 2, 2, 6, 5, 4, 10, 8, 5, 3, 3, 3, 9, 8, 6, 9, 5, 4, 3, 2, 2, 5, 5, 2, 8, 5, 4, 9, 7, 6, 6, 4, 4, 2, 1, 1, 7, 5, 4, 8, 3, 2, 10, 9, 9, 5, 4, 3, 10, 8, 8, 3, 2, 2, 8, 6, 5, 9, 7, 6, 1, 1, 1, 9, 7, 6, 6, 5, 4, 4, 3, 2, 4, 2, 1, 6, 6, 5, 3, 3, 3, 5, 5, 3, 3, 3, 1, 3, 2, 1, 4, 4, 3, 9, 5, 5, 8, 8, 8, 7, 5, 4, 10, 9, 9, 7, 7, 7
 |6, 5, 4, 7, 7, 2, 3, 2, 2, 3, 2, 1, 6, 4, 3, 4, 3, 3, 7, 6, 3, 5, 3, 1, 4, 4, 4, 7, 5, 5, 4, 4, 2, 6, 5, 3, 10, 10, 10, 4, 2, 2, 2, 2, 2, 5, 3, 3, 5, 5, 4, 6, 4, 1, 2, 2, 1, 6, 4, 3, 7, 4, 2, 8, 8, 8, 7, 4, 2, 4, 3, 3, 6, 5, 4, 5, 3, 3, 7, 5, 3, 4, 2, 1, 9, 7, 5, 9, 8, 8, 9, 9, 9, 8, 7, 6, 9, 4, 3, 2, 2, 2, 9, 8, 8, 3, 3, 3, 6, 5, 3, 10, 10, 10, 3, 2, 1, 4, 3, 1, 10, 7, 6, 4, 3, 3, 3, 2, 2, 9, 7, 7, 7, 7, 6, 8, 8, 8, 9, 6, 6, 4, 3, 2, 7, 7, 7, 7, 4, 3, 4, 2, 2, 6, 6, 6, 6, 4, 3, 3, 2, 2, 7, 5, 5, 7, 3, 2, 8, 7, 4, 7, 7, 5, 5, 4, 2, 8, 7, 6, 6, 6, 6, 5, 4, 2, 3, 1, 1, 5, 4, 3, 6, 5, 5, 5, 4, 4, 7, 6, 5, 7, 6, 5, 6, 3, 3, 10, 8, 8, 9, 8, 6, 10, 9, 8, 6, 6, 6, 3, 2, 1, 7, 6, 6, 6, 5, 5, 5, 4, 2, 6, 6, 6, 10, 9, 9, 6, 5, 4, 6, 6, 3, 3, 2, 2, 4, 4, 4, 8, 5, 2, 9, 8, 5, 4, 4, 4, 6, 4, 4, 4, 3, 3, 7, 7, 7, 8, 7, 7, 8, 5, 5, 8, 8, 6, 8, 5, 4, 8, 6, 4, 3, 2, 2, 7, 6, 6, 5, 4, 3, 7, 6, 6, 5, 4, 1, 4, 3, 2
 |5, 5, 4, 5, 4, 3, 8, 6, 5, 9, 7, 7, 1, 1, 1, 2, 2, 2, 6, 6, 6, 10, 8, 6, 8, 5, 5, 5, 5, 5, 7, 6, 6, 6, 6, 4, 7, 6, 5, 8, 8, 7, 6, 5, 3, 9, 8, 6, 6, 6, 5, 8, 7, 2, 10, 8, 6, 6, 4, 3, 9, 8, 7, 1, 1, 1, 7, 5, 3, 10, 8, 8, 7, 6, 6, 5, 4, 1, 10, 9, 7, 3, 2, 2, 3, 2, 2, 8, 6, 6, 9, 5, 4, 3, 2, 1, 10, 8, 8, 6, 6, 6, 9, 8, 8, 9, 4, 2, 5, 4, 3, 9, 9, 9, 7, 6, 6, 7, 4, 3, 7, 6, 3, 6, 4, 4, 3, 3, 1, 5, 4, 4, 8, 7, 7, 7, 6, 6, 4, 3, 2, 9, 6, 5, 10, 8, 6, 4, 3, 1, 9, 5, 4, 4, 2, 2, 5, 5, 3, 4, 4, 4, 2, 2, 2, 9, 8, 8, 7, 6, 6, 9, 7, 7, 8, 6, 6, 10, 8, 8, 8, 5, 3, 7, 5, 3, 6, 6, 6, 5, 4, 3, 4, 3, 3, 5, 4, 1, 7, 6, 6, 9, 9, 8, 4, 2, 1, 6, 6, 6, 4, 3, 3, 8, 6, 4, 8, 4, 2, 9, 7, 6, 2, 1, 1, 6, 3, 3, 10, 10, 10, 9, 3, 1, 8, 6, 5, 7, 5, 4, 5, 3, 2, 3, 2, 2, 4, 2, 2, 3, 3, 2, 5, 4, 3, 4, 4, 4, 5, 5, 4, 3, 3, 1, 5, 3, 3, 5, 4, 1, 8, 6, 5, 4, 4, 4, 7, 6, 3, 7, 5, 3, 8, 4, 4, 4, 2, 1, 4, 3, 2, 4, 2, 2, 8, 8, 8, 7, 3, 2
 |9, 7, 4, 8, 6, 4, 5, 5, 5, 4, 3, 1, 6, 3, 1, 6, 4, 3, 4, 4, 4, 6, 4, 3, 9, 8, 7, 10, 10, 10, 7, 6, 3, 6, 5, 4, 10, 9, 9, 9, 7, 6, 8, 8, 8, 5, 4, 4, 9, 6, 3, 3, 3, 3, 3, 3, 3, 5, 3, 3, 4, 3, 3, 9, 8, 6, 9, 6, 5, 8, 7, 7, 8, 7, 6, 7, 6, 6, 7, 6, 6, 1, 1, 1, 1, 1, 1, 6, 5, 4, 8, 8, 7, 4, 4, 2, 4, 3, 1, 8, 7, 6, 9, 9, 9, 9, 8, 8, 7, 7, 3, 8, 6, 5, 8, 7, 3, 10, 8, 8, 1, 1, 1, 4, 3, 3, 8, 8, 5, 5, 4, 4, 7, 5, 5, 7, 5, 5, 6, 5, 4, 9, 8, 8, 10, 10, 10, 5, 3, 3, 8, 8, 5, 10, 9, 9, 2, 1, 1, 5, 5, 5, 5, 4, 4, 6, 5, 4, 10, 9, 8, 9, 7, 4, 7, 6, 4, 9, 9, 9, 4, 3, 3, 1, 1, 1, 8, 7, 5, 8, 4, 4, 7, 7, 6, 10, 8, 8, 5, 3, 3, 10, 8, 8, 6, 4, 1, 7, 6, 6, 4, 3, 3, 5, 4, 3, 5, 2, 1, 5, 3, 2, 8, 7, 6, 6, 6, 6, 8, 8, 7, 3, 2, 2, 8, 8, 8, 7, 6, 4, 1, 1, 1, 6, 5, 4, 6, 6, 4, 8, 8, 8, 8, 7, 7, 7, 5, 4, 7, 4, 2, 6, 5, 5, 5, 3, 2, 6, 5, 4, 8, 4, 4, 10, 4, 4, 5, 3, 1, 10, 7, 6, 2, 2, 2, 7, 6, 6, 6, 5, 3, 3, 3, 2, 7, 7, 2, 6, 3, 3|];